DATASET = "thpack4";
INSTANCE = "067";

WIDTH = 233;
HEIGHT = 220;
LENGTH = 587;

NO_OF_SHAPES = 10;
size = [|
  119,41,38 |
  90,44,35 |
  67,55,27 |
  71,47,36 |
  90,55,51 |
  87,68,40 |
  87,53,36 |
  113,47,34 |
  97,56,35 |
  90,60,25 |
|];

verticality = [|
  0,1,1 |
  0,1,1 |
  0,0,1 |
  1,1,1 |
  1,1,1 |
  0,1,1 |
  0,1,1 |
  0,1,1 |
  0,1,1 |
  0,0,1 |
|];

box_count = [
  14,
  15,
  7,
  18,
  17,
  19,
  17,
  19,
  25,
  19,
];
